(set-info :smt-lib-version 2.6)
(set-logic QF_NIA)
(set-info :source |
Generated by: Cristina Borralleras, Daniel Larraz, Albert Oliveras, Enric Rodriguez-Carbonell, Albert Rubio
Generated on: 2017-04-27
Generator: VeryMax
Application: Termination proving
Target solver: barcelogic
|)
(set-info :license "https://creativecommons.org/licenses/by/4.0/")
(set-info :category "industrial")
(set-info :status unknown)
(declare-fun Nl3arg11 () Int)
(declare-fun Nl3arg21 () Int)
(declare-fun Nl3arg31 () Int)
(declare-fun Nl3arg41 () Int)
(declare-fun Nl3arg51 () Int)
(declare-fun Nl3arg61 () Int)
(declare-fun Nl3arg12 () Int)
(declare-fun Nl3arg22 () Int)
(declare-fun Nl3arg32 () Int)
(declare-fun Nl3arg42 () Int)
(declare-fun Nl3arg52 () Int)
(declare-fun Nl3arg62 () Int)
(declare-fun Nl3arg13 () Int)
(declare-fun Nl3arg23 () Int)
(declare-fun Nl3arg33 () Int)
(declare-fun Nl3arg43 () Int)
(declare-fun Nl3arg53 () Int)
(declare-fun Nl3arg63 () Int)
(declare-fun lam0n0 () Int)
(declare-fun lam0n1 () Int)
(declare-fun lam0n2 () Int)
(declare-fun lam0n3 () Int)
(declare-fun lam0n4 () Int)
(declare-fun lam0n5 () Int)
(declare-fun Nl3CT1 () Int)
(declare-fun Nl3CT2 () Int)
(declare-fun Nl3CT3 () Int)
(declare-fun lam1n0 () Int)
(declare-fun lam1n1 () Int)
(declare-fun lam1n2 () Int)
(declare-fun lam1n3 () Int)
(declare-fun lam1n4 () Int)
(declare-fun lam1n5 () Int)
(declare-fun lam2n0 () Int)
(declare-fun lam2n1 () Int)
(declare-fun lam2n2 () Int)
(declare-fun lam2n3 () Int)
(declare-fun lam2n4 () Int)
(declare-fun lam2n5 () Int)
(declare-fun lam3n0 () Int)
(declare-fun lam3n1 () Int)
(declare-fun lam3n2 () Int)
(declare-fun lam3n3 () Int)
(declare-fun lam3n4 () Int)
(declare-fun lam3n5 () Int)
(declare-fun lam4n0 () Int)
(declare-fun lam4n1 () Int)
(declare-fun lam4n2 () Int)
(declare-fun lam4n3 () Int)
(declare-fun lam4n4 () Int)
(declare-fun lam4n5 () Int)
(declare-fun lam5n0 () Int)
(declare-fun lam5n1 () Int)
(declare-fun lam5n2 () Int)
(declare-fun lam5n3 () Int)
(declare-fun lam5n4 () Int)
(declare-fun lam5n5 () Int)
(declare-fun lam6n0 () Int)
(declare-fun lam6n1 () Int)
(declare-fun lam6n2 () Int)
(declare-fun lam6n3 () Int)
(declare-fun lam6n4 () Int)
(declare-fun lam6n5 () Int)
(declare-fun lam7n0 () Int)
(declare-fun lam7n1 () Int)
(declare-fun lam7n2 () Int)
(declare-fun lam7n3 () Int)
(declare-fun lam7n4 () Int)
(declare-fun lam7n5 () Int)
(declare-fun lam8n0 () Int)
(declare-fun lam8n1 () Int)
(declare-fun lam8n2 () Int)
(declare-fun lam8n3 () Int)
(declare-fun lam8n4 () Int)
(declare-fun lam8n5 () Int)
(declare-fun lam9n0 () Int)
(declare-fun lam9n1 () Int)
(declare-fun lam9n2 () Int)
(declare-fun lam9n3 () Int)
(declare-fun lam9n4 () Int)
(declare-fun lam9n5 () Int)
(declare-fun lam10n0 () Int)
(declare-fun lam10n1 () Int)
(declare-fun lam10n2 () Int)
(declare-fun lam10n3 () Int)
(declare-fun lam10n4 () Int)
(declare-fun lam10n5 () Int)
(declare-fun arg2 () Int)
(declare-fun undef7 () Int)
(declare-fun arg1 () Int)
(declare-fun undef13 () Int)
(declare-fun arg3 () Int)
(declare-fun undef8 () Int)
(declare-fun undef9 () Int)
(declare-fun undef10 () Int)
(declare-fun undef11 () Int)
(declare-fun undef12 () Int)
(declare-fun lam14n0 () Int)
(declare-fun lam14n1 () Int)
(declare-fun lam14n2 () Int)
(declare-fun lam14n3 () Int)
(declare-fun lam14n4 () Int)
(declare-fun lam14n5 () Int)
(declare-fun RFN1_CT () Int)
(declare-fun RFN1_arg1 () Int)
(declare-fun RFN1_arg2 () Int)
(declare-fun RFN1_arg3 () Int)
(declare-fun RFN1_arg4 () Int)
(declare-fun RFN1_arg5 () Int)
(declare-fun RFN1_arg6 () Int)
(declare-fun lam18n0 () Int)
(declare-fun lam18n1 () Int)
(declare-fun lam18n2 () Int)
(declare-fun lam18n3 () Int)
(declare-fun lam18n4 () Int)
(declare-fun lam18n5 () Int)
(declare-fun lam12n0 () Int)
(declare-fun lam12n1 () Int)
(declare-fun lam12n2 () Int)
(declare-fun lam12n3 () Int)
(declare-fun lam12n4 () Int)
(declare-fun lam12n5 () Int)
(declare-fun lam13n0 () Int)
(declare-fun lam13n1 () Int)
(declare-fun lam13n2 () Int)
(declare-fun lam13n3 () Int)
(declare-fun lam13n4 () Int)
(declare-fun lam13n5 () Int)
(declare-fun lam16n0 () Int)
(declare-fun lam16n1 () Int)
(declare-fun lam16n2 () Int)
(declare-fun lam16n3 () Int)
(declare-fun lam16n4 () Int)
(declare-fun lam16n5 () Int)
(declare-fun lam17n0 () Int)
(declare-fun lam17n1 () Int)
(declare-fun lam17n2 () Int)
(declare-fun lam17n3 () Int)
(declare-fun lam17n4 () Int)
(declare-fun lam17n5 () Int)
(declare-fun lam11n0 () Int)
(declare-fun lam11n1 () Int)
(declare-fun lam11n2 () Int)
(declare-fun lam11n3 () Int)
(declare-fun lam11n4 () Int)
(declare-fun lam11n5 () Int)
(declare-fun lam15n0 () Int)
(declare-fun lam15n1 () Int)
(declare-fun lam15n2 () Int)
(declare-fun lam15n3 () Int)
(declare-fun lam15n4 () Int)
(declare-fun lam15n5 () Int)
(assert ( and ( <= ( - 1 ) Nl3arg11 ) ( <= Nl3arg11 1 ) ( <= ( - 1 ) Nl3arg21 ) ( <= Nl3arg21 1 ) ( <= ( - 1 ) Nl3arg31 ) ( <= Nl3arg31 1 ) ( <= ( - 1 ) Nl3arg41 ) ( <= Nl3arg41 1 ) ( <= ( - 1 ) Nl3arg51 ) ( <= Nl3arg51 1 ) ( <= ( - 1 ) Nl3arg61 ) ( <= Nl3arg61 1 ) ( <= ( - 1 ) Nl3arg12 ) ( <= Nl3arg12 1 ) ( <= ( - 1 ) Nl3arg22 ) ( <= Nl3arg22 1 ) ( <= ( - 1 ) Nl3arg32 ) ( <= Nl3arg32 1 ) ( <= ( - 1 ) Nl3arg42 ) ( <= Nl3arg42 1 ) ( <= ( - 1 ) Nl3arg52 ) ( <= Nl3arg52 1 ) ( <= ( - 1 ) Nl3arg62 ) ( <= Nl3arg62 1 ) ( <= ( - 1 ) Nl3arg13 ) ( <= Nl3arg13 1 ) ( <= ( - 1 ) Nl3arg23 ) ( <= Nl3arg23 1 ) ( <= ( - 1 ) Nl3arg33 ) ( <= Nl3arg33 1 ) ( <= ( - 1 ) Nl3arg43 ) ( <= Nl3arg43 1 ) ( <= ( - 1 ) Nl3arg53 ) ( <= Nl3arg53 1 ) ( <= ( - 1 ) Nl3arg63 ) ( <= Nl3arg63 1 ) ))
(assert ( or ( and ( >= lam0n0 0 ) ( >= lam0n1 0 ) ( >= lam0n2 0 ) ( >= lam0n3 0 ) ( >= lam0n4 0 ) ( >= lam0n5 0 ) ( > ( + ( * 2 lam0n1 ) ( * 3 lam0n2 ) ( * Nl3CT1 lam0n3 ) ( * Nl3CT2 lam0n4 ) ( * Nl3CT3 lam0n5 ) ( - 1 ) ) 0 ) ( = ( + ( * ( - 1 ) lam0n1 ) ( * ( - 1 ) lam0n2 ) ( * Nl3arg11 lam0n3 ) ( * Nl3arg12 lam0n4 ) ( * Nl3arg13 lam0n5 ) ) 0 ) ( = ( + ( * Nl3arg21 lam0n3 ) ( * Nl3arg22 lam0n4 ) ( * Nl3arg23 lam0n5 ) ) 0 ) ( = ( + ( * Nl3arg31 lam0n3 ) ( * Nl3arg32 lam0n4 ) ( * Nl3arg33 lam0n5 ) ) 0 ) ( = ( + ( * Nl3arg41 lam0n3 ) ( * Nl3arg42 lam0n4 ) ( * Nl3arg43 lam0n5 ) ) 0 ) ( = ( + ( * Nl3arg51 lam0n3 ) ( * Nl3arg52 lam0n4 ) ( * Nl3arg53 lam0n5 ) ) 0 ) ( = ( + ( * Nl3arg61 lam0n3 ) ( * Nl3arg62 lam0n4 ) ( * Nl3arg63 lam0n5 ) ) 0 ) ( = ( + ( * ( - 1 ) lam0n0 ) ( * 1 lam0n1 ) ) 0 ) ) ( and ( >= lam1n0 0 ) ( >= lam1n1 0 ) ( >= lam1n2 0 ) ( >= lam1n3 0 ) ( >= lam1n4 0 ) ( >= lam1n5 0 ) ( > ( + ( * 2 lam1n1 ) ( * 3 lam1n2 ) ( * Nl3CT1 lam1n3 ) ( * Nl3CT2 lam1n4 ) ( * Nl3CT3 lam1n5 ) ( - 1 ( + ( + ( + ( + ( + ( + Nl3CT1 ( * Nl3arg11 0 ) ) ( * Nl3arg21 0 ) ) ( * Nl3arg31 0 ) ) ( * Nl3arg41 0 ) ) ( * Nl3arg51 0 ) ) ( * Nl3arg61 0 ) ) ) ) 0 ) ( = ( + ( * ( - 1 ) lam1n1 ) ( * ( - 1 ) lam1n2 ) ( * Nl3arg11 lam1n3 ) ( * Nl3arg12 lam1n4 ) ( * Nl3arg13 lam1n5 ) ) 0 ) ( = ( + ( * Nl3arg21 lam1n3 ) ( * Nl3arg22 lam1n4 ) ( * Nl3arg23 lam1n5 ) ) 0 ) ( = ( + ( * Nl3arg31 lam1n3 ) ( * Nl3arg32 lam1n4 ) ( * Nl3arg33 lam1n5 ) ) 0 ) ( = ( + ( * Nl3arg41 lam1n3 ) ( * Nl3arg42 lam1n4 ) ( * Nl3arg43 lam1n5 ) ) 0 ) ( = ( + ( * Nl3arg51 lam1n3 ) ( * Nl3arg52 lam1n4 ) ( * Nl3arg53 lam1n5 ) ) 0 ) ( = ( + ( * Nl3arg61 lam1n3 ) ( * Nl3arg62 lam1n4 ) ( * Nl3arg63 lam1n5 ) ) 0 ) ( = ( + ( * ( - 1 ) lam1n0 ) ( * 1 lam1n1 ) ( - ( + 0 ( * Nl3arg11 1 ) ) ) ) 0 ) ( = ( - ( + 0 ( * Nl3arg21 1 ) ) ) 0 ) ( = ( - ( + 0 ( * Nl3arg31 1 ) ) ) 0 ) ( = ( - ( + 0 ( * Nl3arg41 1 ) ) ) 0 ) ( = ( - ( + 0 ( * Nl3arg51 1 ) ) ) 0 ) ( = ( - ( + 0 ( * Nl3arg61 1 ) ) ) 0 ) ) ))
(assert ( or ( and ( >= lam0n0 0 ) ( >= lam0n1 0 ) ( >= lam0n2 0 ) ( >= lam0n3 0 ) ( >= lam0n4 0 ) ( >= lam0n5 0 ) ( > ( + ( * 2 lam0n1 ) ( * 3 lam0n2 ) ( * Nl3CT1 lam0n3 ) ( * Nl3CT2 lam0n4 ) ( * Nl3CT3 lam0n5 ) ( - 1 ) ) 0 ) ( = ( + ( * ( - 1 ) lam0n1 ) ( * ( - 1 ) lam0n2 ) ( * Nl3arg11 lam0n3 ) ( * Nl3arg12 lam0n4 ) ( * Nl3arg13 lam0n5 ) ) 0 ) ( = ( + ( * Nl3arg21 lam0n3 ) ( * Nl3arg22 lam0n4 ) ( * Nl3arg23 lam0n5 ) ) 0 ) ( = ( + ( * Nl3arg31 lam0n3 ) ( * Nl3arg32 lam0n4 ) ( * Nl3arg33 lam0n5 ) ) 0 ) ( = ( + ( * Nl3arg41 lam0n3 ) ( * Nl3arg42 lam0n4 ) ( * Nl3arg43 lam0n5 ) ) 0 ) ( = ( + ( * Nl3arg51 lam0n3 ) ( * Nl3arg52 lam0n4 ) ( * Nl3arg53 lam0n5 ) ) 0 ) ( = ( + ( * Nl3arg61 lam0n3 ) ( * Nl3arg62 lam0n4 ) ( * Nl3arg63 lam0n5 ) ) 0 ) ( = ( + ( * ( - 1 ) lam0n0 ) ( * 1 lam0n1 ) ) 0 ) ) ( and ( >= lam2n0 0 ) ( >= lam2n1 0 ) ( >= lam2n2 0 ) ( >= lam2n3 0 ) ( >= lam2n4 0 ) ( >= lam2n5 0 ) ( > ( + ( * 2 lam2n1 ) ( * 3 lam2n2 ) ( * Nl3CT1 lam2n3 ) ( * Nl3CT2 lam2n4 ) ( * Nl3CT3 lam2n5 ) ( - 1 ( + ( + ( + ( + ( + ( + Nl3CT2 ( * Nl3arg12 0 ) ) ( * Nl3arg22 0 ) ) ( * Nl3arg32 0 ) ) ( * Nl3arg42 0 ) ) ( * Nl3arg52 0 ) ) ( * Nl3arg62 0 ) ) ) ) 0 ) ( = ( + ( * ( - 1 ) lam2n1 ) ( * ( - 1 ) lam2n2 ) ( * Nl3arg11 lam2n3 ) ( * Nl3arg12 lam2n4 ) ( * Nl3arg13 lam2n5 ) ) 0 ) ( = ( + ( * Nl3arg21 lam2n3 ) ( * Nl3arg22 lam2n4 ) ( * Nl3arg23 lam2n5 ) ) 0 ) ( = ( + ( * Nl3arg31 lam2n3 ) ( * Nl3arg32 lam2n4 ) ( * Nl3arg33 lam2n5 ) ) 0 ) ( = ( + ( * Nl3arg41 lam2n3 ) ( * Nl3arg42 lam2n4 ) ( * Nl3arg43 lam2n5 ) ) 0 ) ( = ( + ( * Nl3arg51 lam2n3 ) ( * Nl3arg52 lam2n4 ) ( * Nl3arg53 lam2n5 ) ) 0 ) ( = ( + ( * Nl3arg61 lam2n3 ) ( * Nl3arg62 lam2n4 ) ( * Nl3arg63 lam2n5 ) ) 0 ) ( = ( + ( * ( - 1 ) lam2n0 ) ( * 1 lam2n1 ) ( - ( + 0 ( * Nl3arg12 1 ) ) ) ) 0 ) ( = ( - ( + 0 ( * Nl3arg22 1 ) ) ) 0 ) ( = ( - ( + 0 ( * Nl3arg32 1 ) ) ) 0 ) ( = ( - ( + 0 ( * Nl3arg42 1 ) ) ) 0 ) ( = ( - ( + 0 ( * Nl3arg52 1 ) ) ) 0 ) ( = ( - ( + 0 ( * Nl3arg62 1 ) ) ) 0 ) ) ))
(assert ( or ( and ( >= lam0n0 0 ) ( >= lam0n1 0 ) ( >= lam0n2 0 ) ( >= lam0n3 0 ) ( >= lam0n4 0 ) ( >= lam0n5 0 ) ( > ( + ( * 2 lam0n1 ) ( * 3 lam0n2 ) ( * Nl3CT1 lam0n3 ) ( * Nl3CT2 lam0n4 ) ( * Nl3CT3 lam0n5 ) ( - 1 ) ) 0 ) ( = ( + ( * ( - 1 ) lam0n1 ) ( * ( - 1 ) lam0n2 ) ( * Nl3arg11 lam0n3 ) ( * Nl3arg12 lam0n4 ) ( * Nl3arg13 lam0n5 ) ) 0 ) ( = ( + ( * Nl3arg21 lam0n3 ) ( * Nl3arg22 lam0n4 ) ( * Nl3arg23 lam0n5 ) ) 0 ) ( = ( + ( * Nl3arg31 lam0n3 ) ( * Nl3arg32 lam0n4 ) ( * Nl3arg33 lam0n5 ) ) 0 ) ( = ( + ( * Nl3arg41 lam0n3 ) ( * Nl3arg42 lam0n4 ) ( * Nl3arg43 lam0n5 ) ) 0 ) ( = ( + ( * Nl3arg51 lam0n3 ) ( * Nl3arg52 lam0n4 ) ( * Nl3arg53 lam0n5 ) ) 0 ) ( = ( + ( * Nl3arg61 lam0n3 ) ( * Nl3arg62 lam0n4 ) ( * Nl3arg63 lam0n5 ) ) 0 ) ( = ( + ( * ( - 1 ) lam0n0 ) ( * 1 lam0n1 ) ) 0 ) ) ( and ( >= lam3n0 0 ) ( >= lam3n1 0 ) ( >= lam3n2 0 ) ( >= lam3n3 0 ) ( >= lam3n4 0 ) ( >= lam3n5 0 ) ( > ( + ( * 2 lam3n1 ) ( * 3 lam3n2 ) ( * Nl3CT1 lam3n3 ) ( * Nl3CT2 lam3n4 ) ( * Nl3CT3 lam3n5 ) ( - 1 ( + ( + ( + ( + ( + ( + Nl3CT3 ( * Nl3arg13 0 ) ) ( * Nl3arg23 0 ) ) ( * Nl3arg33 0 ) ) ( * Nl3arg43 0 ) ) ( * Nl3arg53 0 ) ) ( * Nl3arg63 0 ) ) ) ) 0 ) ( = ( + ( * ( - 1 ) lam3n1 ) ( * ( - 1 ) lam3n2 ) ( * Nl3arg11 lam3n3 ) ( * Nl3arg12 lam3n4 ) ( * Nl3arg13 lam3n5 ) ) 0 ) ( = ( + ( * Nl3arg21 lam3n3 ) ( * Nl3arg22 lam3n4 ) ( * Nl3arg23 lam3n5 ) ) 0 ) ( = ( + ( * Nl3arg31 lam3n3 ) ( * Nl3arg32 lam3n4 ) ( * Nl3arg33 lam3n5 ) ) 0 ) ( = ( + ( * Nl3arg41 lam3n3 ) ( * Nl3arg42 lam3n4 ) ( * Nl3arg43 lam3n5 ) ) 0 ) ( = ( + ( * Nl3arg51 lam3n3 ) ( * Nl3arg52 lam3n4 ) ( * Nl3arg53 lam3n5 ) ) 0 ) ( = ( + ( * Nl3arg61 lam3n3 ) ( * Nl3arg62 lam3n4 ) ( * Nl3arg63 lam3n5 ) ) 0 ) ( = ( + ( * ( - 1 ) lam3n0 ) ( * 1 lam3n1 ) ( - ( + 0 ( * Nl3arg13 1 ) ) ) ) 0 ) ( = ( - ( + 0 ( * Nl3arg23 1 ) ) ) 0 ) ( = ( - ( + 0 ( * Nl3arg33 1 ) ) ) 0 ) ( = ( - ( + 0 ( * Nl3arg43 1 ) ) ) 0 ) ( = ( - ( + 0 ( * Nl3arg53 1 ) ) ) 0 ) ( = ( - ( + 0 ( * Nl3arg63 1 ) ) ) 0 ) ) ))
(assert ( or ( and ( >= lam4n0 0 ) ( >= lam4n1 0 ) ( >= lam4n2 0 ) ( >= lam4n3 0 ) ( >= lam4n4 0 ) ( >= lam4n5 0 ) ( > ( + ( * 3 lam4n0 ) ( * 3 lam4n1 ) ( * ( - 2 ) lam4n2 ) ( * Nl3CT1 lam4n3 ) ( * Nl3CT2 lam4n4 ) ( * Nl3CT3 lam4n5 ) ( - 1 ) ) 0 ) ( = ( + ( * ( - 1 ) lam4n0 ) ( * ( - 1 ) lam4n2 ) ( * Nl3arg11 lam4n3 ) ( * Nl3arg12 lam4n4 ) ( * Nl3arg13 lam4n5 ) ) 0 ) ( = ( + ( * Nl3arg21 lam4n3 ) ( * Nl3arg22 lam4n4 ) ( * Nl3arg23 lam4n5 ) ) 0 ) ( = ( + ( * Nl3arg31 lam4n3 ) ( * Nl3arg32 lam4n4 ) ( * Nl3arg33 lam4n5 ) ) 0 ) ( = ( + ( * Nl3arg41 lam4n3 ) ( * Nl3arg42 lam4n4 ) ( * Nl3arg43 lam4n5 ) ) 0 ) ( = ( + ( * Nl3arg51 lam4n3 ) ( * Nl3arg52 lam4n4 ) ( * Nl3arg53 lam4n5 ) ) 0 ) ( = ( + ( * Nl3arg61 lam4n3 ) ( * Nl3arg62 lam4n4 ) ( * Nl3arg63 lam4n5 ) ) 0 ) ( = ( + ( * ( - 1 ) lam4n1 ) ( * 1 lam4n2 ) ) 0 ) ) ( and ( >= lam5n0 0 ) ( >= lam5n1 0 ) ( >= lam5n2 0 ) ( >= lam5n3 0 ) ( >= lam5n4 0 ) ( >= lam5n5 0 ) ( > ( + ( * 3 lam5n0 ) ( * 3 lam5n1 ) ( * ( - 2 ) lam5n2 ) ( * Nl3CT1 lam5n3 ) ( * Nl3CT2 lam5n4 ) ( * Nl3CT3 lam5n5 ) ( - 1 ( + ( + ( + ( + ( + ( + Nl3CT1 ( * Nl3arg11 0 ) ) ( * Nl3arg21 0 ) ) ( * Nl3arg31 0 ) ) ( * Nl3arg41 0 ) ) ( * Nl3arg51 0 ) ) ( * Nl3arg61 0 ) ) ) ) 0 ) ( = ( + ( * ( - 1 ) lam5n0 ) ( * ( - 1 ) lam5n2 ) ( * Nl3arg11 lam5n3 ) ( * Nl3arg12 lam5n4 ) ( * Nl3arg13 lam5n5 ) ) 0 ) ( = ( + ( * Nl3arg21 lam5n3 ) ( * Nl3arg22 lam5n4 ) ( * Nl3arg23 lam5n5 ) ) 0 ) ( = ( + ( * Nl3arg31 lam5n3 ) ( * Nl3arg32 lam5n4 ) ( * Nl3arg33 lam5n5 ) ) 0 ) ( = ( + ( * Nl3arg41 lam5n3 ) ( * Nl3arg42 lam5n4 ) ( * Nl3arg43 lam5n5 ) ) 0 ) ( = ( + ( * Nl3arg51 lam5n3 ) ( * Nl3arg52 lam5n4 ) ( * Nl3arg53 lam5n5 ) ) 0 ) ( = ( + ( * Nl3arg61 lam5n3 ) ( * Nl3arg62 lam5n4 ) ( * Nl3arg63 lam5n5 ) ) 0 ) ( = ( + ( * ( - 1 ) lam5n1 ) ( * 1 lam5n2 ) ( - ( + 0 ( * Nl3arg11 1 ) ) ) ) 0 ) ( = ( - ( + 0 ( * Nl3arg21 1 ) ) ) 0 ) ( = ( - ( + 0 ( * Nl3arg31 1 ) ) ) 0 ) ( = ( - ( + 0 ( * Nl3arg41 1 ) ) ) 0 ) ( = ( - ( + 0 ( * Nl3arg51 1 ) ) ) 0 ) ( = ( - ( + 0 ( * Nl3arg61 1 ) ) ) 0 ) ) ))
(assert ( or ( and ( >= lam4n0 0 ) ( >= lam4n1 0 ) ( >= lam4n2 0 ) ( >= lam4n3 0 ) ( >= lam4n4 0 ) ( >= lam4n5 0 ) ( > ( + ( * 3 lam4n0 ) ( * 3 lam4n1 ) ( * ( - 2 ) lam4n2 ) ( * Nl3CT1 lam4n3 ) ( * Nl3CT2 lam4n4 ) ( * Nl3CT3 lam4n5 ) ( - 1 ) ) 0 ) ( = ( + ( * ( - 1 ) lam4n0 ) ( * ( - 1 ) lam4n2 ) ( * Nl3arg11 lam4n3 ) ( * Nl3arg12 lam4n4 ) ( * Nl3arg13 lam4n5 ) ) 0 ) ( = ( + ( * Nl3arg21 lam4n3 ) ( * Nl3arg22 lam4n4 ) ( * Nl3arg23 lam4n5 ) ) 0 ) ( = ( + ( * Nl3arg31 lam4n3 ) ( * Nl3arg32 lam4n4 ) ( * Nl3arg33 lam4n5 ) ) 0 ) ( = ( + ( * Nl3arg41 lam4n3 ) ( * Nl3arg42 lam4n4 ) ( * Nl3arg43 lam4n5 ) ) 0 ) ( = ( + ( * Nl3arg51 lam4n3 ) ( * Nl3arg52 lam4n4 ) ( * Nl3arg53 lam4n5 ) ) 0 ) ( = ( + ( * Nl3arg61 lam4n3 ) ( * Nl3arg62 lam4n4 ) ( * Nl3arg63 lam4n5 ) ) 0 ) ( = ( + ( * ( - 1 ) lam4n1 ) ( * 1 lam4n2 ) ) 0 ) ) ( and ( >= lam6n0 0 ) ( >= lam6n1 0 ) ( >= lam6n2 0 ) ( >= lam6n3 0 ) ( >= lam6n4 0 ) ( >= lam6n5 0 ) ( > ( + ( * 3 lam6n0 ) ( * 3 lam6n1 ) ( * ( - 2 ) lam6n2 ) ( * Nl3CT1 lam6n3 ) ( * Nl3CT2 lam6n4 ) ( * Nl3CT3 lam6n5 ) ( - 1 ( + ( + ( + ( + ( + ( + Nl3CT2 ( * Nl3arg12 0 ) ) ( * Nl3arg22 0 ) ) ( * Nl3arg32 0 ) ) ( * Nl3arg42 0 ) ) ( * Nl3arg52 0 ) ) ( * Nl3arg62 0 ) ) ) ) 0 ) ( = ( + ( * ( - 1 ) lam6n0 ) ( * ( - 1 ) lam6n2 ) ( * Nl3arg11 lam6n3 ) ( * Nl3arg12 lam6n4 ) ( * Nl3arg13 lam6n5 ) ) 0 ) ( = ( + ( * Nl3arg21 lam6n3 ) ( * Nl3arg22 lam6n4 ) ( * Nl3arg23 lam6n5 ) ) 0 ) ( = ( + ( * Nl3arg31 lam6n3 ) ( * Nl3arg32 lam6n4 ) ( * Nl3arg33 lam6n5 ) ) 0 ) ( = ( + ( * Nl3arg41 lam6n3 ) ( * Nl3arg42 lam6n4 ) ( * Nl3arg43 lam6n5 ) ) 0 ) ( = ( + ( * Nl3arg51 lam6n3 ) ( * Nl3arg52 lam6n4 ) ( * Nl3arg53 lam6n5 ) ) 0 ) ( = ( + ( * Nl3arg61 lam6n3 ) ( * Nl3arg62 lam6n4 ) ( * Nl3arg63 lam6n5 ) ) 0 ) ( = ( + ( * ( - 1 ) lam6n1 ) ( * 1 lam6n2 ) ( - ( + 0 ( * Nl3arg12 1 ) ) ) ) 0 ) ( = ( - ( + 0 ( * Nl3arg22 1 ) ) ) 0 ) ( = ( - ( + 0 ( * Nl3arg32 1 ) ) ) 0 ) ( = ( - ( + 0 ( * Nl3arg42 1 ) ) ) 0 ) ( = ( - ( + 0 ( * Nl3arg52 1 ) ) ) 0 ) ( = ( - ( + 0 ( * Nl3arg62 1 ) ) ) 0 ) ) ))
(assert ( or ( and ( >= lam4n0 0 ) ( >= lam4n1 0 ) ( >= lam4n2 0 ) ( >= lam4n3 0 ) ( >= lam4n4 0 ) ( >= lam4n5 0 ) ( > ( + ( * 3 lam4n0 ) ( * 3 lam4n1 ) ( * ( - 2 ) lam4n2 ) ( * Nl3CT1 lam4n3 ) ( * Nl3CT2 lam4n4 ) ( * Nl3CT3 lam4n5 ) ( - 1 ) ) 0 ) ( = ( + ( * ( - 1 ) lam4n0 ) ( * ( - 1 ) lam4n2 ) ( * Nl3arg11 lam4n3 ) ( * Nl3arg12 lam4n4 ) ( * Nl3arg13 lam4n5 ) ) 0 ) ( = ( + ( * Nl3arg21 lam4n3 ) ( * Nl3arg22 lam4n4 ) ( * Nl3arg23 lam4n5 ) ) 0 ) ( = ( + ( * Nl3arg31 lam4n3 ) ( * Nl3arg32 lam4n4 ) ( * Nl3arg33 lam4n5 ) ) 0 ) ( = ( + ( * Nl3arg41 lam4n3 ) ( * Nl3arg42 lam4n4 ) ( * Nl3arg43 lam4n5 ) ) 0 ) ( = ( + ( * Nl3arg51 lam4n3 ) ( * Nl3arg52 lam4n4 ) ( * Nl3arg53 lam4n5 ) ) 0 ) ( = ( + ( * Nl3arg61 lam4n3 ) ( * Nl3arg62 lam4n4 ) ( * Nl3arg63 lam4n5 ) ) 0 ) ( = ( + ( * ( - 1 ) lam4n1 ) ( * 1 lam4n2 ) ) 0 ) ) ( and ( >= lam7n0 0 ) ( >= lam7n1 0 ) ( >= lam7n2 0 ) ( >= lam7n3 0 ) ( >= lam7n4 0 ) ( >= lam7n5 0 ) ( > ( + ( * 3 lam7n0 ) ( * 3 lam7n1 ) ( * ( - 2 ) lam7n2 ) ( * Nl3CT1 lam7n3 ) ( * Nl3CT2 lam7n4 ) ( * Nl3CT3 lam7n5 ) ( - 1 ( + ( + ( + ( + ( + ( + Nl3CT3 ( * Nl3arg13 0 ) ) ( * Nl3arg23 0 ) ) ( * Nl3arg33 0 ) ) ( * Nl3arg43 0 ) ) ( * Nl3arg53 0 ) ) ( * Nl3arg63 0 ) ) ) ) 0 ) ( = ( + ( * ( - 1 ) lam7n0 ) ( * ( - 1 ) lam7n2 ) ( * Nl3arg11 lam7n3 ) ( * Nl3arg12 lam7n4 ) ( * Nl3arg13 lam7n5 ) ) 0 ) ( = ( + ( * Nl3arg21 lam7n3 ) ( * Nl3arg22 lam7n4 ) ( * Nl3arg23 lam7n5 ) ) 0 ) ( = ( + ( * Nl3arg31 lam7n3 ) ( * Nl3arg32 lam7n4 ) ( * Nl3arg33 lam7n5 ) ) 0 ) ( = ( + ( * Nl3arg41 lam7n3 ) ( * Nl3arg42 lam7n4 ) ( * Nl3arg43 lam7n5 ) ) 0 ) ( = ( + ( * Nl3arg51 lam7n3 ) ( * Nl3arg52 lam7n4 ) ( * Nl3arg53 lam7n5 ) ) 0 ) ( = ( + ( * Nl3arg61 lam7n3 ) ( * Nl3arg62 lam7n4 ) ( * Nl3arg63 lam7n5 ) ) 0 ) ( = ( + ( * ( - 1 ) lam7n1 ) ( * 1 lam7n2 ) ( - ( + 0 ( * Nl3arg13 1 ) ) ) ) 0 ) ( = ( - ( + 0 ( * Nl3arg23 1 ) ) ) 0 ) ( = ( - ( + 0 ( * Nl3arg33 1 ) ) ) 0 ) ( = ( - ( + 0 ( * Nl3arg43 1 ) ) ) 0 ) ( = ( - ( + 0 ( * Nl3arg53 1 ) ) ) 0 ) ( = ( - ( + 0 ( * Nl3arg63 1 ) ) ) 0 ) ) ))
(assert ( and ( <= ( * ( - 1 ) arg2 ) 0 ) ( <= ( + ( * ( - 1 ) arg2 ) undef7 ) 0 ) ( <= ( + 1 ( * ( - 1 ) arg1 ) ) 0 ) ( <= ( + 1 ( * ( - 1 ) undef13 ) ) 0 ) ( not ( <= ( + ( - 2 ) undef7 ) 0 ) ) ( = arg3 0 ) ( <= ( + ( + ( + ( + ( + ( + ( + Nl3CT1 ( * Nl3arg11 0 ) ) ( * Nl3arg21 0 ) ) ( * Nl3arg31 0 ) ) ( * Nl3arg41 0 ) ) ( * Nl3arg51 0 ) ) ( * Nl3arg61 0 ) ) ( * ( + 0 ( * Nl3arg11 1 ) ) undef7 ) ( * ( + 0 ( * Nl3arg21 1 ) ) undef8 ) ( * ( + 0 ( * Nl3arg31 1 ) ) undef9 ) ( * ( + 0 ( * Nl3arg41 1 ) ) undef10 ) ( * ( + 0 ( * Nl3arg51 1 ) ) undef11 ) ( * ( + 0 ( * Nl3arg61 1 ) ) undef12 ) ) 0 ) ( <= ( + ( + ( + ( + ( + ( + ( + Nl3CT2 ( * Nl3arg12 0 ) ) ( * Nl3arg22 0 ) ) ( * Nl3arg32 0 ) ) ( * Nl3arg42 0 ) ) ( * Nl3arg52 0 ) ) ( * Nl3arg62 0 ) ) ( * ( + 0 ( * Nl3arg12 1 ) ) undef7 ) ( * ( + 0 ( * Nl3arg22 1 ) ) undef8 ) ( * ( + 0 ( * Nl3arg32 1 ) ) undef9 ) ( * ( + 0 ( * Nl3arg42 1 ) ) undef10 ) ( * ( + 0 ( * Nl3arg52 1 ) ) undef11 ) ( * ( + 0 ( * Nl3arg62 1 ) ) undef12 ) ) 0 ) ( <= ( + ( + ( + ( + ( + ( + ( + Nl3CT3 ( * Nl3arg13 0 ) ) ( * Nl3arg23 0 ) ) ( * Nl3arg33 0 ) ) ( * Nl3arg43 0 ) ) ( * Nl3arg53 0 ) ) ( * Nl3arg63 0 ) ) ( * ( + 0 ( * Nl3arg13 1 ) ) undef7 ) ( * ( + 0 ( * Nl3arg23 1 ) ) undef8 ) ( * ( + 0 ( * Nl3arg33 1 ) ) undef9 ) ( * ( + 0 ( * Nl3arg43 1 ) ) undef10 ) ( * ( + 0 ( * Nl3arg53 1 ) ) undef11 ) ( * ( + 0 ( * Nl3arg63 1 ) ) undef12 ) ) 0 ) ))
(assert ( or ( and ( and ( and ( >= lam14n0 0 ) ( >= lam14n1 0 ) ( >= lam14n2 0 ) ( >= lam14n3 0 ) ( >= lam14n4 0 ) ( >= lam14n5 0 ) ( > ( + ( * 2 lam14n1 ) ( * 3 lam14n2 ) ( * Nl3CT1 lam14n3 ) ( * Nl3CT2 lam14n4 ) ( * Nl3CT3 lam14n5 ) ( - 1 ( - ( + ( + ( + ( + ( + ( + RFN1_CT ( * RFN1_arg1 0 ) ) ( * RFN1_arg2 0 ) ) ( * RFN1_arg3 0 ) ) ( * RFN1_arg4 0 ) ) ( * RFN1_arg5 0 ) ) ( * RFN1_arg6 0 ) ) RFN1_CT ) ) ) 0 ) ( = ( + ( * ( - 1 ) lam14n1 ) ( * ( - 1 ) lam14n2 ) ( * Nl3arg11 lam14n3 ) ( * Nl3arg12 lam14n4 ) ( * Nl3arg13 lam14n5 ) ( - ( - RFN1_arg1 ) ) ) 0 ) ( = ( + ( * Nl3arg21 lam14n3 ) ( * Nl3arg22 lam14n4 ) ( * Nl3arg23 lam14n5 ) ( - ( - RFN1_arg2 ) ) ) 0 ) ( = ( + ( * Nl3arg31 lam14n3 ) ( * Nl3arg32 lam14n4 ) ( * Nl3arg33 lam14n5 ) ( - ( - RFN1_arg3 ) ) ) 0 ) ( = ( + ( * Nl3arg41 lam14n3 ) ( * Nl3arg42 lam14n4 ) ( * Nl3arg43 lam14n5 ) ( - ( - RFN1_arg4 ) ) ) 0 ) ( = ( + ( * Nl3arg51 lam14n3 ) ( * Nl3arg52 lam14n4 ) ( * Nl3arg53 lam14n5 ) ( - ( - RFN1_arg5 ) ) ) 0 ) ( = ( + ( * Nl3arg61 lam14n3 ) ( * Nl3arg62 lam14n4 ) ( * Nl3arg63 lam14n5 ) ( - ( - RFN1_arg6 ) ) ) 0 ) ( = ( + ( * ( - 1 ) lam14n0 ) ( * 1 lam14n1 ) ( - ( + 0 ( * RFN1_arg1 1 ) ) ) ) 0 ) ( = ( - ( + 0 ( * RFN1_arg2 1 ) ) ) 0 ) ( = ( - ( + 0 ( * RFN1_arg3 1 ) ) ) 0 ) ( = ( - ( + 0 ( * RFN1_arg4 1 ) ) ) 0 ) ( = ( - ( + 0 ( * RFN1_arg5 1 ) ) ) 0 ) ( = ( - ( + 0 ( * RFN1_arg6 1 ) ) ) 0 ) ) ( and ( >= lam18n0 0 ) ( >= lam18n1 0 ) ( >= lam18n2 0 ) ( >= lam18n3 0 ) ( >= lam18n4 0 ) ( >= lam18n5 0 ) ( > ( + ( * 3 lam18n0 ) ( * 3 lam18n1 ) ( * ( - 2 ) lam18n2 ) ( * Nl3CT1 lam18n3 ) ( * Nl3CT2 lam18n4 ) ( * Nl3CT3 lam18n5 ) ( - 1 ( - ( + ( + ( + ( + ( + ( + RFN1_CT ( * RFN1_arg1 0 ) ) ( * RFN1_arg2 0 ) ) ( * RFN1_arg3 0 ) ) ( * RFN1_arg4 0 ) ) ( * RFN1_arg5 0 ) ) ( * RFN1_arg6 0 ) ) RFN1_CT ) ) ) 0 ) ( = ( + ( * ( - 1 ) lam18n0 ) ( * ( - 1 ) lam18n2 ) ( * Nl3arg11 lam18n3 ) ( * Nl3arg12 lam18n4 ) ( * Nl3arg13 lam18n5 ) ( - ( - RFN1_arg1 ) ) ) 0 ) ( = ( + ( * Nl3arg21 lam18n3 ) ( * Nl3arg22 lam18n4 ) ( * Nl3arg23 lam18n5 ) ( - ( - RFN1_arg2 ) ) ) 0 ) ( = ( + ( * Nl3arg31 lam18n3 ) ( * Nl3arg32 lam18n4 ) ( * Nl3arg33 lam18n5 ) ( - ( - RFN1_arg3 ) ) ) 0 ) ( = ( + ( * Nl3arg41 lam18n3 ) ( * Nl3arg42 lam18n4 ) ( * Nl3arg43 lam18n5 ) ( - ( - RFN1_arg4 ) ) ) 0 ) ( = ( + ( * Nl3arg51 lam18n3 ) ( * Nl3arg52 lam18n4 ) ( * Nl3arg53 lam18n5 ) ( - ( - RFN1_arg5 ) ) ) 0 ) ( = ( + ( * Nl3arg61 lam18n3 ) ( * Nl3arg62 lam18n4 ) ( * Nl3arg63 lam18n5 ) ( - ( - RFN1_arg6 ) ) ) 0 ) ( = ( + ( * ( - 1 ) lam18n1 ) ( * 1 lam18n2 ) ( - ( + 0 ( * RFN1_arg1 1 ) ) ) ) 0 ) ( = ( - ( + 0 ( * RFN1_arg2 1 ) ) ) 0 ) ( = ( - ( + 0 ( * RFN1_arg3 1 ) ) ) 0 ) ( = ( - ( + 0 ( * RFN1_arg4 1 ) ) ) 0 ) ( = ( - ( + 0 ( * RFN1_arg5 1 ) ) ) 0 ) ( = ( - ( + 0 ( * RFN1_arg6 1 ) ) ) 0 ) ) ) ( or ( and ( and ( >= lam12n0 0 ) ( >= lam12n1 0 ) ( >= lam12n2 0 ) ( >= lam12n3 0 ) ( >= lam12n4 0 ) ( >= lam12n5 0 ) ( > ( + ( * 2 lam12n1 ) ( * 3 lam12n2 ) ( * Nl3CT1 lam12n3 ) ( * Nl3CT2 lam12n4 ) ( * Nl3CT3 lam12n5 ) ( - 1 ( - RFN1_CT ) ) ) 0 ) ( = ( + ( * ( - 1 ) lam12n1 ) ( * ( - 1 ) lam12n2 ) ( * Nl3arg11 lam12n3 ) ( * Nl3arg12 lam12n4 ) ( * Nl3arg13 lam12n5 ) ( - ( - RFN1_arg1 ) ) ) 0 ) ( = ( + ( * Nl3arg21 lam12n3 ) ( * Nl3arg22 lam12n4 ) ( * Nl3arg23 lam12n5 ) ( - ( - RFN1_arg2 ) ) ) 0 ) ( = ( + ( * Nl3arg31 lam12n3 ) ( * Nl3arg32 lam12n4 ) ( * Nl3arg33 lam12n5 ) ( - ( - RFN1_arg3 ) ) ) 0 ) ( = ( + ( * Nl3arg41 lam12n3 ) ( * Nl3arg42 lam12n4 ) ( * Nl3arg43 lam12n5 ) ( - ( - RFN1_arg4 ) ) ) 0 ) ( = ( + ( * Nl3arg51 lam12n3 ) ( * Nl3arg52 lam12n4 ) ( * Nl3arg53 lam12n5 ) ( - ( - RFN1_arg5 ) ) ) 0 ) ( = ( + ( * Nl3arg61 lam12n3 ) ( * Nl3arg62 lam12n4 ) ( * Nl3arg63 lam12n5 ) ( - ( - RFN1_arg6 ) ) ) 0 ) ( = ( + ( * ( - 1 ) lam12n0 ) ( * 1 lam12n1 ) ) 0 ) ) ( and ( >= lam13n0 0 ) ( >= lam13n1 0 ) ( >= lam13n2 0 ) ( >= lam13n3 0 ) ( >= lam13n4 0 ) ( >= lam13n5 0 ) ( > ( + ( * 2 lam13n1 ) ( * 3 lam13n2 ) ( * Nl3CT1 lam13n3 ) ( * Nl3CT2 lam13n4 ) ( * Nl3CT3 lam13n5 ) ( - 1 ( + ( - ( + ( + ( + ( + ( + ( + RFN1_CT ( * RFN1_arg1 0 ) ) ( * RFN1_arg2 0 ) ) ( * RFN1_arg3 0 ) ) ( * RFN1_arg4 0 ) ) ( * RFN1_arg5 0 ) ) ( * RFN1_arg6 0 ) ) RFN1_CT ) 1 ) ) ) 0 ) ( = ( + ( * ( - 1 ) lam13n1 ) ( * ( - 1 ) lam13n2 ) ( * Nl3arg11 lam13n3 ) ( * Nl3arg12 lam13n4 ) ( * Nl3arg13 lam13n5 ) ( - ( - RFN1_arg1 ) ) ) 0 ) ( = ( + ( * Nl3arg21 lam13n3 ) ( * Nl3arg22 lam13n4 ) ( * Nl3arg23 lam13n5 ) ( - ( - RFN1_arg2 ) ) ) 0 ) ( = ( + ( * Nl3arg31 lam13n3 ) ( * Nl3arg32 lam13n4 ) ( * Nl3arg33 lam13n5 ) ( - ( - RFN1_arg3 ) ) ) 0 ) ( = ( + ( * Nl3arg41 lam13n3 ) ( * Nl3arg42 lam13n4 ) ( * Nl3arg43 lam13n5 ) ( - ( - RFN1_arg4 ) ) ) 0 ) ( = ( + ( * Nl3arg51 lam13n3 ) ( * Nl3arg52 lam13n4 ) ( * Nl3arg53 lam13n5 ) ( - ( - RFN1_arg5 ) ) ) 0 ) ( = ( + ( * Nl3arg61 lam13n3 ) ( * Nl3arg62 lam13n4 ) ( * Nl3arg63 lam13n5 ) ( - ( - RFN1_arg6 ) ) ) 0 ) ( = ( + ( * ( - 1 ) lam13n0 ) ( * 1 lam13n1 ) ( - ( + 0 ( * RFN1_arg1 1 ) ) ) ) 0 ) ( = ( - ( + 0 ( * RFN1_arg2 1 ) ) ) 0 ) ( = ( - ( + 0 ( * RFN1_arg3 1 ) ) ) 0 ) ( = ( - ( + 0 ( * RFN1_arg4 1 ) ) ) 0 ) ( = ( - ( + 0 ( * RFN1_arg5 1 ) ) ) 0 ) ( = ( - ( + 0 ( * RFN1_arg6 1 ) ) ) 0 ) ) ) ( and ( and ( >= lam16n0 0 ) ( >= lam16n1 0 ) ( >= lam16n2 0 ) ( >= lam16n3 0 ) ( >= lam16n4 0 ) ( >= lam16n5 0 ) ( > ( + ( * 3 lam16n0 ) ( * 3 lam16n1 ) ( * ( - 2 ) lam16n2 ) ( * Nl3CT1 lam16n3 ) ( * Nl3CT2 lam16n4 ) ( * Nl3CT3 lam16n5 ) ( - 1 ( - RFN1_CT ) ) ) 0 ) ( = ( + ( * ( - 1 ) lam16n0 ) ( * ( - 1 ) lam16n2 ) ( * Nl3arg11 lam16n3 ) ( * Nl3arg12 lam16n4 ) ( * Nl3arg13 lam16n5 ) ( - ( - RFN1_arg1 ) ) ) 0 ) ( = ( + ( * Nl3arg21 lam16n3 ) ( * Nl3arg22 lam16n4 ) ( * Nl3arg23 lam16n5 ) ( - ( - RFN1_arg2 ) ) ) 0 ) ( = ( + ( * Nl3arg31 lam16n3 ) ( * Nl3arg32 lam16n4 ) ( * Nl3arg33 lam16n5 ) ( - ( - RFN1_arg3 ) ) ) 0 ) ( = ( + ( * Nl3arg41 lam16n3 ) ( * Nl3arg42 lam16n4 ) ( * Nl3arg43 lam16n5 ) ( - ( - RFN1_arg4 ) ) ) 0 ) ( = ( + ( * Nl3arg51 lam16n3 ) ( * Nl3arg52 lam16n4 ) ( * Nl3arg53 lam16n5 ) ( - ( - RFN1_arg5 ) ) ) 0 ) ( = ( + ( * Nl3arg61 lam16n3 ) ( * Nl3arg62 lam16n4 ) ( * Nl3arg63 lam16n5 ) ( - ( - RFN1_arg6 ) ) ) 0 ) ( = ( + ( * ( - 1 ) lam16n1 ) ( * 1 lam16n2 ) ) 0 ) ) ( and ( >= lam17n0 0 ) ( >= lam17n1 0 ) ( >= lam17n2 0 ) ( >= lam17n3 0 ) ( >= lam17n4 0 ) ( >= lam17n5 0 ) ( > ( + ( * 3 lam17n0 ) ( * 3 lam17n1 ) ( * ( - 2 ) lam17n2 ) ( * Nl3CT1 lam17n3 ) ( * Nl3CT2 lam17n4 ) ( * Nl3CT3 lam17n5 ) ( - 1 ( + ( - ( + ( + ( + ( + ( + ( + RFN1_CT ( * RFN1_arg1 0 ) ) ( * RFN1_arg2 0 ) ) ( * RFN1_arg3 0 ) ) ( * RFN1_arg4 0 ) ) ( * RFN1_arg5 0 ) ) ( * RFN1_arg6 0 ) ) RFN1_CT ) 1 ) ) ) 0 ) ( = ( + ( * ( - 1 ) lam17n0 ) ( * ( - 1 ) lam17n2 ) ( * Nl3arg11 lam17n3 ) ( * Nl3arg12 lam17n4 ) ( * Nl3arg13 lam17n5 ) ( - ( - RFN1_arg1 ) ) ) 0 ) ( = ( + ( * Nl3arg21 lam17n3 ) ( * Nl3arg22 lam17n4 ) ( * Nl3arg23 lam17n5 ) ( - ( - RFN1_arg2 ) ) ) 0 ) ( = ( + ( * Nl3arg31 lam17n3 ) ( * Nl3arg32 lam17n4 ) ( * Nl3arg33 lam17n5 ) ( - ( - RFN1_arg3 ) ) ) 0 ) ( = ( + ( * Nl3arg41 lam17n3 ) ( * Nl3arg42 lam17n4 ) ( * Nl3arg43 lam17n5 ) ( - ( - RFN1_arg4 ) ) ) 0 ) ( = ( + ( * Nl3arg51 lam17n3 ) ( * Nl3arg52 lam17n4 ) ( * Nl3arg53 lam17n5 ) ( - ( - RFN1_arg5 ) ) ) 0 ) ( = ( + ( * Nl3arg61 lam17n3 ) ( * Nl3arg62 lam17n4 ) ( * Nl3arg63 lam17n5 ) ( - ( - RFN1_arg6 ) ) ) 0 ) ( = ( + ( * ( - 1 ) lam17n1 ) ( * 1 lam17n2 ) ( - ( + 0 ( * RFN1_arg1 1 ) ) ) ) 0 ) ( = ( - ( + 0 ( * RFN1_arg2 1 ) ) ) 0 ) ( = ( - ( + 0 ( * RFN1_arg3 1 ) ) ) 0 ) ( = ( - ( + 0 ( * RFN1_arg4 1 ) ) ) 0 ) ( = ( - ( + 0 ( * RFN1_arg5 1 ) ) ) 0 ) ( = ( - ( + 0 ( * RFN1_arg6 1 ) ) ) 0 ) ) ) ) ) ( or ( and ( >= lam11n0 0 ) ( >= lam11n1 0 ) ( >= lam11n2 0 ) ( >= lam11n3 0 ) ( >= lam11n4 0 ) ( >= lam11n5 0 ) ( > ( + ( * 2 lam11n1 ) ( * 3 lam11n2 ) ( * Nl3CT1 lam11n3 ) ( * Nl3CT2 lam11n4 ) ( * Nl3CT3 lam11n5 ) ( - 1 ) ) 0 ) ( = ( + ( * ( - 1 ) lam11n1 ) ( * ( - 1 ) lam11n2 ) ( * Nl3arg11 lam11n3 ) ( * Nl3arg12 lam11n4 ) ( * Nl3arg13 lam11n5 ) ) 0 ) ( = ( + ( * Nl3arg21 lam11n3 ) ( * Nl3arg22 lam11n4 ) ( * Nl3arg23 lam11n5 ) ) 0 ) ( = ( + ( * Nl3arg31 lam11n3 ) ( * Nl3arg32 lam11n4 ) ( * Nl3arg33 lam11n5 ) ) 0 ) ( = ( + ( * Nl3arg41 lam11n3 ) ( * Nl3arg42 lam11n4 ) ( * Nl3arg43 lam11n5 ) ) 0 ) ( = ( + ( * Nl3arg51 lam11n3 ) ( * Nl3arg52 lam11n4 ) ( * Nl3arg53 lam11n5 ) ) 0 ) ( = ( + ( * Nl3arg61 lam11n3 ) ( * Nl3arg62 lam11n4 ) ( * Nl3arg63 lam11n5 ) ) 0 ) ( = ( + ( * ( - 1 ) lam11n0 ) ( * 1 lam11n1 ) ) 0 ) ) ( and ( >= lam15n0 0 ) ( >= lam15n1 0 ) ( >= lam15n2 0 ) ( >= lam15n3 0 ) ( >= lam15n4 0 ) ( >= lam15n5 0 ) ( > ( + ( * 3 lam15n0 ) ( * 3 lam15n1 ) ( * ( - 2 ) lam15n2 ) ( * Nl3CT1 lam15n3 ) ( * Nl3CT2 lam15n4 ) ( * Nl3CT3 lam15n5 ) ( - 1 ) ) 0 ) ( = ( + ( * ( - 1 ) lam15n0 ) ( * ( - 1 ) lam15n2 ) ( * Nl3arg11 lam15n3 ) ( * Nl3arg12 lam15n4 ) ( * Nl3arg13 lam15n5 ) ) 0 ) ( = ( + ( * Nl3arg21 lam15n3 ) ( * Nl3arg22 lam15n4 ) ( * Nl3arg23 lam15n5 ) ) 0 ) ( = ( + ( * Nl3arg31 lam15n3 ) ( * Nl3arg32 lam15n4 ) ( * Nl3arg33 lam15n5 ) ) 0 ) ( = ( + ( * Nl3arg41 lam15n3 ) ( * Nl3arg42 lam15n4 ) ( * Nl3arg43 lam15n5 ) ) 0 ) ( = ( + ( * Nl3arg51 lam15n3 ) ( * Nl3arg52 lam15n4 ) ( * Nl3arg53 lam15n5 ) ) 0 ) ( = ( + ( * Nl3arg61 lam15n3 ) ( * Nl3arg62 lam15n4 ) ( * Nl3arg63 lam15n5 ) ) 0 ) ( = ( + ( * ( - 1 ) lam15n1 ) ( * 1 lam15n2 ) ) 0 ) ) ) ))
(check-sat)
(exit)
